1 1 -2 0
1 1 -3 0
1 1 -4 0
1 -1 5 0
1 -1 -6 0
1 1 -7 0
1 -2 8 0
1 -2 -3 0
1 -2 1 0
1 2 -5 0
1 -2 7 0
1 -9 10 0
1 -9 -11 0
1 -9 12 0
1 9 -3 0
1 -9 -4 0
1 9 13 0
1 9 -14 0
1 9 5 0
1 12 10 0
1 12 11 0
1 -12 -15 0
1 -12 -3 0
1 -12 16 0
1 12 -9 0
1 -12 -5 0
1 12 -7 0
1 -4 -17 0
1 -4 -18 0
1 4 12 0
1 4 -2 0
1 4 -19 0
1 -4 1 0
1 7 -20 0
1 -7 21 0
1 7 12 0
1 -7 2 0
1 7 4 0
1 -7 -22 0
1 -7 19 0
1 7 9 0
1 7 -1 0
1 -3 17 0
1 -3 23 0
1 3 12 0
1 -3 -2 0
1 -3 -24 0
1 -3 -25 0
1 3 -1 0
1 3 -5 0
1 -5 -23 0
1 -5 26 0
1 5 12 0
1 -5 2 0
1 -5 -3 0
1 -5 -22 0
1 -5 -25 0
1 5 -27 0
1 5 -9 0
1 5 -1 0
1 5 28 0
1 -29 -10 0
1 -29 -11 0
1 29 -18 0
1 29 13 0
1 29 -27 0
1 -29 7 0
1 -18 10 0
1 18 -11 0
1 -18 26 0
1 18 16 0
1 -18 13 0
1 18 29 0
1 -18 7 0
1 19 10 0
1 19 -11 0
1 19 -30 0
1 19 31 0
1 19 4 0
1 -19 16 0
1 19 13 0
1 19 -32 0
1 -19 -25 0
1 19 33 0
1 -19 7 0
1 21 -10 0
1 21 -11 0
1 -21 23 0
1 -21 -31 0
1 21 -4 0
1 21 -13 0
1 21 19 0
1 21 -32 0
1 -21 7 0
1 -13 21 0
1 13 -18 0
1 -13 -12 0
1 -13 34 0
1 -13 35 0
1 13 29 0
1 -13 -9 0
1 -13 -36 0
1 -11 -37 0
1 -11 -38 0
1 11 -39 0
1 -11 21 0
1 -11 -18 0
1 -11 -12 0
1 11 40 0
1 11 -41 0
1 11 -34 0
1 11 -13 0
1 -11 -19 0
1 -11 -29 0
1 11 9 0
1 -11 36 0
1 -16 -42 0
1 16 -18 0
1 16 -12 0
1 -16 -40 0
1 -16 -43 0
1 16 22 0
1 -16 -19 0
1 16 -29 0
1 -16 9 0
1 -16 -36 0
1 -10 -42 0
1 10 -44 0
1 -10 21 0
1 10 -18 0
1 10 12 0
1 -10 -40 0
1 10 -16 0
1 10 -45 0
1 -10 22 0
1 -10 -19 0
1 -10 -29 0
1 -10 9 0
1 -10 -36 0
1 34 -38 0
1 34 11 0
1 -34 31 0
1 34 -13 0
1 -34 22 0
1 34 32 0
1 34 33 0
1 -38 -11 0
1 38 17 0
1 -38 -30 0
1 -38 -31 0
1 38 34 0
1 38 -32 0
1 38 33 0
1 -41 37 0
1 -41 -11 0
1 41 -30 0
1 -41 31 0
1 41 32 0
1 -41 33 0
1 -37 11 0
1 37 -41 0
1 -37 -33 0
1 -33 37 0
1 33 38 0
1 33 -31 0
1 33 46 0
1 -33 41 0
1 33 34 0
1 -33 -19 0
1 33 47 0
1 31 37 0
1 -31 38 0
1 -31 -21 0
1 31 46 0
1 31 41 0
1 -31 -34 0
1 -31 -19 0
1 -31 -33 0
1 -31 48 0
1 32 -38 0
1 32 21 0
1 32 30 0
1 32 -46 0
1 32 40 0
1 32 -41 0
1 32 49 0
1 32 -50 0
1 32 36 0
1 30 -37 0
1 30 -38 0
1 30 21 0
1 -30 -51 0
1 -30 46 0
1 30 52 0
1 30 34 0
1 -30 -19 0
1 -30 -48 0
1 30 50 0
1 30 -36 0
1 -6 53 0
1 -6 54 0
1 -6 8 0
1 6 -55 0
1 -6 56 0
1 6 -1 0
1 8 53 0
1 -8 54 0
1 8 -55 0
1 -8 56 0
1 14 -54 0
1 14 -57 0
1 -14 -58 0
1 -14 -15 0
1 -14 55 0
1 -14 -56 0
1 14 -59 0
1 -14 -60 0
1 14 -9 0
1 15 53 0
1 15 -54 0
1 -15 -57 0
1 -15 58 0
1 -15 12 0
1 15 -55 0
1 -15 56 0
1 -15 59 0
1 -15 -60 0
1 15 -14 0
1 -54 23 0
1 54 61 0
1 54 26 0
1 -54 15 0
1 -54 56 0
1 -54 -25 0
1 -54 -27 0
1 -54 14 0
1 -54 -6 0
1 -56 23 0
1 56 26 0
1 56 -15 0
1 56 -8 0
1 -56 62 0
1 56 27 0
1 -56 -14 0
1 56 6 0
1 -53 63 0
1 -53 -15 0
1 -53 55 0
1 -53 -14 0
1 53 6 0
1 -55 53 0
1 55 15 0
1 -55 8 0
1 -55 64 0
1 -55 14 0
1 -27 54 0
1 -27 57 0
1 -27 58 0
1 27 3 0
1 27 56 0
1 -27 -59 0
1 27 -60 0
1 -27 29 0
1 27 -5 0
1 26 -54 0
1 26 57 0
1 -26 -18 0
1 -26 -58 0
1 26 3 0
1 -26 -56 0
1 -26 -59 0
1 26 60 0
1 -26 27 0
1 -25 54 0
1 -25 58 0
1 -25 -65 0
1 25 -3 0
1 25 56 0
1 -25 19 0
1 -25 60 0
1 25 66 0
1 25 -67 0
1 25 5 0
1 23 60 0
1 23 -54 0
1 -23 -21 0
1 23 57 0
1 -23 58 0
1 -23 -68 0
1 23 -65 0
1 23 3 0
1 -23 59 0
1 23 -25 0
1 23 -66 0
1 23 -67 0
1 23 5 0
1 58 69 0
1 -58 60 0
1 58 -42 0
1 -58 -23 0
1 -58 -26 0
1 -58 -70 0
1 -58 -15 0
1 58 -71 0
1 -58 45 0
1 -58 -22 0
1 58 25 0
1 58 27 0
1 58 -14 0
1 60 -69 0
1 60 -42 0
1 60 17 0
1 -60 23 0
1 60 26 0
1 -60 -15 0
1 60 -45 0
1 -60 -22 0
1 -60 25 0
1 -60 -72 0
1 -60 14 0
1 -57 -23 0
1 57 26 0
1 57 -15 0
1 57 -71 0
1 57 -59 0
1 -57 14 0
1 -59 -69 0
1 -59 -23 0
1 59 57 0
1 -59 -26 0
1 59 -15 0
1 -59 71 0
1 -59 25 0
1 -59 -73 0
1 -59 14 0
1 -22 -10 0
1 22 17 0
1 -22 -58 0
1 22 65 0
1 22 3 0
1 -22 4 0
1 -22 34 0
1 22 60 0
1 22 -66 0
1 22 7 0
1 17 -10 0
1 -17 38 0
1 -17 -68 0
1 -17 65 0
1 17 -3 0
1 -17 4 0
1 -17 16 0
1 -17 22 0
1 17 60 0
1 17 66 0
1 -17 67 0
1 -17 -5 0
1 -17 -7 0
1 45 -20 0
1 45 -10 0
1 -45 -42 0
1 45 58 0
1 -45 -68 0
1 45 65 0
1 -45 24 0
1 45 74 0
1 45 -16 0
1 -45 -41 0
1 45 -66 0
1 -45 -67 0
1 -45 -28 0
1 -42 -20 0
1 -42 37 0
1 -42 10 0
1 42 -58 0
1 42 -65 0
1 42 -74 0
1 -42 -16 0
1 42 60 0
1 42 66 0
1 42 67 0
1 -42 28 0
1 65 -42 0
1 -65 17 0
1 -65 -23 0
1 -65 75 0
1 65 76 0
1 65 -45 0
1 65 22 0
1 65 25 0
1 -65 -67 0
1 -65 -77 0
1 -65 50 0
1 65 -36 0
1 -67 -42 0
1 -67 -23 0
1 67 65 0
1 -67 52 0
1 -67 -40 0
1 -67 -45 0
1 -67 22 0
1 67 25 0
1 -67 -77 0
1 67 50 0
1 -67 36 0
1 68 -69 0
1 68 -42 0
1 -68 23 0
1 -68 78 0
1 -68 -79 0
1 68 71 0
1 68 -45 0
1 -68 25 0
1 -68 77 0
1 68 80 0
1 -66 69 0
1 66 -42 0
1 66 17 0
1 -66 23 0
1 66 -68 0
1 66 79 0
1 -66 -71 0
1 66 45 0
1 66 -25 0
1 -66 81 0
1 -66 -77 0
1 66 80 0
1 40 -20 0
1 40 -11 0
1 -40 30 0
1 -40 65 0
1 40 -24 0
1 -40 -71 0
1 40 -16 0
1 -40 -74 0
1 -40 13 0
1 -40 32 0
1 40 -67 0
1 -40 -36 0
1 -36 -69 0
1 -36 10 0
1 36 -11 0
1 -36 65 0
1 -36 74 0
1 -36 16 0
1 -36 -13 0
1 -36 -32 0
1 -52 20 0
1 -52 -44 0
1 -52 30 0
1 -52 65 0
1 52 -79 0
1 -52 -24 0
1 52 -74 0
1 52 -43 0
1 52 35 0
1 -52 32 0
1 52 67 0
1 -52 -50 0
1 52 -28 0
1 50 20 0
1 50 -44 0
1 50 39 0
1 50 -30 0
1 50 -65 0
1 50 -52 0
1 50 -24 0
1 50 -74 0
1 -50 43 0
1 -50 32 0
1 50 -28 0
1 -50 -67 0
1 -50 -80 0
1 -74 -82 0
1 -74 83 0
1 -74 -46 0
1 74 -52 0
1 -74 40 0
1 74 -4 0
1 74 -45 0
1 74 84 0
1 -74 85 0
1 74 -48 0
1 -74 50 0
1 74 -36 0
1 -20 42 0
1 20 82 0
1 -20 -83 0
1 -20 -46 0
1 -20 -52 0
1 -20 40 0
1 20 74 0
1 -20 45 0
1 -20 84 0
1 -20 48 0
1 -20 50 0
1 -20 36 0
1 -24 -42 0
1 24 -82 0
1 -24 86 0
1 -24 52 0
1 -24 -3 0
1 -24 40 0
1 -24 87 0
1 -24 77 0
1 -24 -36 0
1 -28 42 0
1 28 86 0
1 -28 75 0
1 -28 -24 0
1 28 45 0
1 -28 84 0
1 28 87 0
1 28 -77 0
1 -46 -20 0
1 -46 30 0
1 -46 -39 0
1 -46 -75 0
1 -46 74 0
1 46 43 0
1 46 -35 0
1 46 -32 0
1 46 33 0
1 -46 -48 0
1 -48 20 0
1 48 -44 0
1 -48 39 0
1 48 -30 0
1 -48 -31 0
1 -48 -46 0
1 -48 -74 0
1 48 -43 0
1 -48 35 0
1 48 32 0
1 -83 44 0
1 83 85 0
1 -83 88 0
1 -83 -86 0
1 83 74 0
1 -83 -43 0
1 -83 49 0
1 85 20 0
1 85 -44 0
1 85 -51 0
1 85 -88 0
1 85 -83 0
1 -85 -74 0
1 85 -43 0
1 -85 35 0
1 85 49 0
1 85 47 0
1 85 -87 0
1 -35 -39 0
1 35 89 0
1 35 90 0
1 -35 -83 0
1 -35 -46 0
1 -35 -52 0
1 35 -13 0
1 -35 -91 0
1 35 85 0
1 -35 -48 0
1 35 -50 0
1 39 -11 0
1 -39 -89 0
1 -39 90 0
1 -39 83 0
1 39 46 0
1 -39 -52 0
1 39 91 0
1 -39 92 0
1 39 85 0
1 -39 -50 0
1 -43 -44 0
1 -43 93 0
1 -43 -82 0
1 -43 -83 0
1 -43 -46 0
1 43 -52 0
1 -43 -94 0
1 -43 -85 0
1 43 50 0
1 44 -10 0
1 -44 93 0
1 -44 -82 0
1 -44 -83 0
1 -44 -46 0
1 -44 -52 0
1 -44 43 0
1 44 -94 0
1 -44 -84 0
1 -44 85 0
1 -44 -50 0
1 -90 -39 0
1 -90 51 0
1 -90 -88 0
1 -90 -49 0
1 90 35 0
1 -90 -92 0
1 -90 47 0
1 -92 39 0
1 92 51 0
1 -92 90 0
1 -92 88 0
1 92 -35 0
1 -92 49 0
1 -92 -47 0
1 89 39 0
1 -89 51 0
1 -89 -88 0
1 -89 91 0
1 89 49 0
1 89 -47 0
1 91 -39 0
1 91 -89 0
1 -91 51 0
1 -91 -35 0
1 -91 94 0
1 91 49 0
1 91 47 0
1 -47 -89 0
1 47 88 0
1 47 -92 0
1 -47 -33 0
1 47 -85 0
1 -88 -89 0
1 -88 31 0
1 -88 -90 0
1 88 -83 0
1 -88 91 0
1 88 -85 0
1 -49 89 0
1 -49 -51 0
1 -49 90 0
1 -49 83 0
1 -49 91 0
1 -49 -92 0
1 49 -85 0
1 -51 -30 0
1 -51 -89 0
1 -51 -90 0
1 -51 -85 0
1 71 69 0
1 71 63 0
1 71 -61 0
1 -71 57 0
1 71 68 0
1 -71 62 0
1 -71 -60 0
1 -71 66 0
1 -69 63 0
1 -69 -58 0
1 -69 71 0
1 -69 -64 0
1 -69 62 0
1 69 59 0
1 -69 60 0
1 -69 66 0
1 -69 36 0
1 79 -63 0
1 79 -95 0
1 -79 70 0
1 79 -68 0
1 79 73 0
1 -79 -72 0
1 -79 66 0
1 79 80 0
1 80 63 0
1 80 61 0
1 -80 -95 0
1 80 -70 0
1 -80 68 0
1 80 79 0
1 80 -64 0
1 -80 62 0
1 -80 73 0
1 -80 72 0
1 -80 -66 0
1 80 50 0
1 61 -69 0
1 -61 54 0
1 -61 75 0
1 -61 79 0
1 -61 -71 0
1 -61 62 0
1 -61 87 0
1 61 -77 0
1 61 80 0
1 62 -69 0
1 62 -61 0
1 62 86 0
1 62 -75 0
1 62 79 0
1 -62 -71 0
1 -62 -56 0
1 62 87 0
1 -63 69 0
1 63 53 0
1 -63 79 0
1 -63 71 0
1 63 64 0
1 63 80 0
1 -64 -63 0
1 64 55 0
1 75 -61 0
1 75 95 0
1 75 -70 0
1 -75 46 0
1 75 24 0
1 75 -73 0
1 75 -72 0
1 -75 66 0
1 -75 67 0
1 75 -77 0
1 75 28 0
1 -77 61 0
1 77 -95 0
1 77 -70 0
1 -77 -68 0
1 77 -67 0
1 77 -65 0
1 -77 75 0
1 77 24 0
1 77 73 0
1 -77 72 0
1 -77 -66 0
1 -77 -48 0
1 -77 -28 0
1 86 61 0
1 -86 81 0
1 86 95 0
1 -86 70 0
1 -86 -83 0
1 86 -78 0
1 86 -76 0
1 86 24 0
1 86 -62 0
1 86 -72 0
1 86 -87 0
1 86 -96 0
1 -86 28 0
1 87 -61 0
1 87 95 0
1 87 -70 0
1 87 -78 0
1 87 76 0
1 -87 -24 0
1 87 72 0
1 87 -85 0
1 -87 -81 0
1 87 -96 0
1 87 -28 0
1 -70 -72 0
1 -70 93 0
1 70 -82 0
1 -70 -86 0
1 -70 75 0
1 70 -79 0
1 -70 -94 0
1 -70 -84 0
1 -70 87 0
1 -70 -80 0
1 -72 93 0
1 72 82 0
1 72 -70 0
1 72 86 0
1 -72 -75 0
1 72 -60 0
1 -72 87 0
1 72 -77 0
1 72 -80 0
1 95 86 0
1 -95 75 0
1 95 79 0
1 95 73 0
1 95 77 0
1 -73 -95 0
1 73 86 0
1 73 75 0
1 73 -79 0
1 -73 -59 0
1 -73 -87 0
1 82 20 0
1 82 44 0
1 82 72 0
1 82 90 0
1 -82 -70 0
1 82 76 0
1 -82 74 0
1 -82 43 0
1 -82 -84 0
1 -82 81 0
1 82 -96 0
1 -82 -28 0
1 -84 -20 0
1 84 44 0
1 -84 82 0
1 -84 78 0
1 -84 74 0
1 84 -43 0
1 -84 72 0
1 -84 81 0
1 -84 -96 0
1 93 -44 0
1 -93 89 0
1 93 -70 0
1 93 -78 0
1 -93 -76 0
1 -93 -43 0
1 -93 72 0
1 93 -81 0
1 -93 -96 0
1 94 93 0
1 94 -70 0
1 -94 78 0
1 94 -76 0
1 -94 -43 0
1 -94 91 0
1 -94 -72 0
1 -94 -81 0
1 -94 96 0
1 -76 -93 0
1 76 -82 0
1 76 65 0
1 -76 -94 0
1 76 84 0
1 76 -96 0
1 96 -93 0
1 -96 82 0
1 -96 86 0
1 -96 -76 0
1 -96 94 0
1 -96 -87 0
1 -78 -93 0
1 -78 -81 0
1 -78 -82 0
1 -78 68 0
1 -78 -86 0
1 78 94 0
1 -78 -87 0
1 -81 -86 0
1 81 94 0
1 81 84 0
1 81 -66 0
1 81 -87 0
